20
3	318	397	100	77
8	433	211	23	95
12	81	386	92	87
41	308	198	87	92
14	434	473	40	91
37	164	412	98	31
17	81	291	99	80
33	143	334	81	96
23	369	361	21	38
29	190	40	85	88
7	371	192	14	98
3	333	328	36	77
34	408	438	88	84
41	115	39	86	57
42	318	271	100	67
12	90	345	65	91
12	288	263	12	14
41	39	352	28	60
44	339	13	37	37
35	221	166	7	19
